c WMC file for PBN ISCAS/c499_distill_ISCAS/c499_miter written by probABC
p cnf 531 1455
47 20 24 0
-47 -20 0
-47 -24 0
48 -20 -24 0
-48 20 0
-48 24 0
49 47 48 0
-49 -47 0
-49 -48 0
50 -28 32 0
-50 28 0
-50 -32 0
51 28 -32 0
-51 -28 0
-51 32 0
52 50 51 0
-52 -50 0
-52 -51 0
53 -49 -52 0
-53 49 0
-53 52 0
54 49 52 0
-54 -49 0
-54 -52 0
55 53 54 0
-55 -53 0
-55 -54 0
56 5 6 0
-56 -5 0
-56 -6 0
57 -5 -6 0
-57 5 0
-57 6 0
58 56 57 0
-58 -56 0
-58 -57 0
59 7 -8 0
-59 -7 0
-59 8 0
60 42 59 0
-60 -42 0
-60 -59 0
61 -7 8 0
-61 7 0
-61 -8 0
62 -60 61 0
-62 60 0
-62 -61 0
63 60 -61 0
-63 -60 0
-63 61 0
64 62 63 0
-64 -62 0
-64 -63 0
65 -58 -64 0
-65 58 0
-65 64 0
66 58 64 0
-66 -58 0
-66 -64 0
67 65 66 0
-67 -65 0
-67 -66 0
68 13 14 0
-68 -13 0
-68 -14 0
69 -13 -14 0
-69 13 0
-69 14 0
70 68 69 0
-70 -68 0
-70 -69 0
71 -15 16 0
-71 15 0
-71 -16 0
72 15 -16 0
-72 -15 0
-72 16 0
73 71 72 0
-73 -71 0
-73 -72 0
74 -70 -73 0
-74 70 0
-74 73 0
75 70 73 0
-75 -70 0
-75 -73 0
76 74 75 0
-76 -74 0
-76 -75 0
77 -40 -41 0
-77 40 0
-77 41 0
78 -76 -77 0
-78 76 0
-78 77 0
79 76 77 0
-79 -76 0
-79 -77 0
80 78 79 0
-80 -78 0
-80 -79 0
81 67 -80 0
-81 -67 0
-81 80 0
82 -67 80 0
-82 67 0
-82 -80 0
83 81 82 0
-83 -81 0
-83 -82 0
84 -55 -83 0
-84 55 0
-84 83 0
85 55 83 0
-85 -55 0
-85 -83 0
86 84 85 0
-86 -84 0
-86 -85 0
87 -35 -41 0
-87 35 0
-87 41 0
88 25 26 0
-88 -25 0
-88 -26 0
89 -25 -26 0
-89 25 0
-89 26 0
90 88 89 0
-90 -88 0
-90 -89 0
91 -27 28 0
-91 27 0
-91 -28 0
92 27 -28 0
-92 -27 0
-92 28 0
93 91 92 0
-93 -91 0
-93 -92 0
94 -90 -93 0
-94 90 0
-94 93 0
95 90 93 0
-95 -90 0
-95 -93 0
96 94 95 0
-96 -94 0
-96 -95 0
97 -87 -96 0
-97 87 0
-97 96 0
98 87 96 0
-98 -87 0
-98 -96 0
99 97 98 0
-99 -97 0
-99 -98 0
100 3 7 0
-100 -3 0
-100 -7 0
101 -3 -7 0
-101 3 0
-101 7 0
102 100 101 0
-102 -100 0
-102 -101 0
103 -11 15 0
-103 11 0
-103 -15 0
104 11 -15 0
-104 -11 0
-104 15 0
105 103 104 0
-105 -103 0
-105 -104 0
106 -102 -105 0
-106 102 0
-106 105 0
107 102 105 0
-107 -102 0
-107 -105 0
108 106 107 0
-108 -106 0
-108 -107 0
109 17 18 0
-109 -17 0
-109 -18 0
110 -17 -18 0
-110 17 0
-110 18 0
111 109 110 0
-111 -109 0
-111 -110 0
112 -19 20 0
-112 19 0
-112 -20 0
113 19 -20 0
-113 -19 0
-113 20 0
114 112 113 0
-114 -112 0
-114 -113 0
115 -111 -114 0
-115 111 0
-115 114 0
116 111 114 0
-116 -111 0
-116 -114 0
117 115 116 0
-117 -115 0
-117 -116 0
118 -108 117 0
-118 108 0
-118 -117 0
119 108 -117 0
-119 -108 0
-119 117 0
120 118 119 0
-120 -118 0
-120 -119 0
121 -99 -120 0
-121 99 0
-121 120 0
122 99 120 0
-122 -99 0
-122 -120 0
123 121 122 0
-123 -121 0
-123 -122 0
124 29 30 0
-124 -29 0
-124 -30 0
125 -29 -30 0
-125 29 0
-125 30 0
126 124 125 0
-126 -124 0
-126 -125 0
127 -31 32 0
-127 31 0
-127 -32 0
128 31 -32 0
-128 -31 0
-128 32 0
129 127 128 0
-129 -127 0
-129 -128 0
130 -126 -129 0
-130 126 0
-130 129 0
131 126 129 0
-131 -126 0
-131 -129 0
132 130 131 0
-132 -130 0
-132 -131 0
133 -43 -132 0
-133 43 0
-133 132 0
134 43 132 0
-134 -43 0
-134 -132 0
135 133 134 0
-135 -133 0
-135 -134 0
136 4 8 0
-136 -4 0
-136 -8 0
137 -4 -8 0
-137 4 0
-137 8 0
138 136 137 0
-138 -136 0
-138 -137 0
139 -12 16 0
-139 12 0
-139 -16 0
140 12 -16 0
-140 -12 0
-140 16 0
141 139 140 0
-141 -139 0
-141 -140 0
142 -138 -141 0
-142 138 0
-142 141 0
143 138 141 0
-143 -138 0
-143 -141 0
144 142 143 0
-144 -142 0
-144 -143 0
145 135 144 0
-145 -135 0
-145 -144 0
146 -135 -144 0
-146 135 0
-146 144 0
147 145 146 0
-147 -145 0
-147 -146 0
148 -36 -41 0
-148 36 0
-148 41 0
149 21 22 0
-149 -21 0
-149 -22 0
150 -21 -22 0
-150 21 0
-150 22 0
151 149 150 0
-151 -149 0
-151 -150 0
152 -23 24 0
-152 23 0
-152 -24 0
153 23 -24 0
-153 -23 0
-153 24 0
154 152 153 0
-154 -152 0
-154 -153 0
155 -151 -154 0
-155 151 0
-155 154 0
156 151 154 0
-156 -151 0
-156 -154 0
157 155 156 0
-157 -155 0
-157 -156 0
158 -148 157 0
-158 148 0
-158 -157 0
159 148 -157 0
-159 -148 0
-159 157 0
160 158 159 0
-160 -158 0
-160 -159 0
161 -147 -160 0
-161 147 0
-161 160 0
162 147 160 0
-162 -147 0
-162 -160 0
163 161 162 0
-163 -161 0
-163 -162 0
164 123 -163 0
-164 -123 0
-164 163 0
165 2 6 0
-165 -2 0
-165 -6 0
166 -2 -6 0
-166 2 0
-166 6 0
167 165 166 0
-167 -165 0
-167 -166 0
168 -10 14 0
-168 10 0
-168 -14 0
169 10 -14 0
-169 -10 0
-169 14 0
170 168 169 0
-170 -168 0
-170 -169 0
171 -167 -170 0
-171 167 0
-171 170 0
172 167 170 0
-172 -167 0
-172 -170 0
173 171 172 0
-173 -171 0
-173 -172 0
174 135 173 0
-174 -135 0
-174 -173 0
175 -135 -173 0
-175 135 0
-175 173 0
176 174 175 0
-176 -174 0
-176 -175 0
177 -34 -41 0
-177 34 0
-177 41 0
178 96 -177 0
-178 -96 0
-178 177 0
179 -96 177 0
-179 96 0
-179 -177 0
180 178 179 0
-180 -178 0
-180 -179 0
181 -176 -180 0
-181 176 0
-181 180 0
182 176 180 0
-182 -176 0
-182 -180 0
183 181 182 0
-183 -181 0
-183 -182 0
184 -33 -41 0
-184 33 0
-184 41 0
185 -157 -184 0
-185 157 0
-185 184 0
186 157 184 0
-186 -157 0
-186 -184 0
187 185 186 0
-187 -185 0
-187 -186 0
188 1 5 0
-188 -1 0
-188 -5 0
189 -1 -5 0
-189 1 0
-189 5 0
190 188 189 0
-190 -188 0
-190 -189 0
191 -9 13 0
-191 9 0
-191 -13 0
192 9 -13 0
-192 -9 0
-192 13 0
193 191 192 0
-193 -191 0
-193 -192 0
194 -190 193 0
-194 190 0
-194 -193 0
195 190 -193 0
-195 -190 0
-195 193 0
196 194 195 0
-196 -194 0
-196 -195 0
197 -117 196 0
-197 117 0
-197 -196 0
198 117 -196 0
-198 -117 0
-198 196 0
199 197 198 0
-199 -197 0
-199 -198 0
200 -187 -199 0
-200 187 0
-200 199 0
201 187 199 0
-201 -187 0
-201 -199 0
202 200 201 0
-202 -200 0
-202 -201 0
203 -183 -202 0
-203 183 0
-203 202 0
204 -38 -41 0
-204 38 0
-204 41 0
205 9 10 0
-205 -9 0
-205 -10 0
206 -9 -10 0
-206 9 0
-206 10 0
207 205 206 0
-207 -205 0
-207 -206 0
208 -11 12 0
-208 11 0
-208 -12 0
209 11 -12 0
-209 -11 0
-209 12 0
210 208 209 0
-210 -208 0
-210 -209 0
211 -207 -210 0
-211 207 0
-211 210 0
212 207 210 0
-212 -207 0
-212 -210 0
213 211 212 0
-213 -211 0
-213 -212 0
214 -204 -213 0
-214 204 0
-214 213 0
215 204 213 0
-215 -204 0
-215 -213 0
216 214 215 0
-216 -214 0
-216 -215 0
217 18 22 0
-217 -18 0
-217 -22 0
218 -18 -22 0
-218 18 0
-218 22 0
219 217 218 0
-219 -217 0
-219 -218 0
220 -26 30 0
-220 26 0
-220 -30 0
221 26 -30 0
-221 -26 0
-221 30 0
222 220 221 0
-222 -220 0
-222 -221 0
223 -219 222 0
-223 219 0
-223 -222 0
224 219 -222 0
-224 -219 0
-224 222 0
225 223 224 0
-225 -223 0
-225 -224 0
226 -76 225 0
-226 76 0
-226 -225 0
227 76 -225 0
-227 -76 0
-227 225 0
228 226 227 0
-228 -226 0
-228 -227 0
229 -216 -228 0
-229 216 0
-229 228 0
230 216 228 0
-230 -216 0
-230 -228 0
231 229 230 0
-231 -229 0
-231 -230 0
232 17 21 0
-232 -17 0
-232 -21 0
233 -17 -21 0
-233 17 0
-233 21 0
234 232 233 0
-234 -232 0
-234 -233 0
235 -25 29 0
-235 25 0
-235 -29 0
236 25 -29 0
-236 -25 0
-236 29 0
237 235 236 0
-237 -235 0
-237 -236 0
238 -234 -237 0
-238 234 0
-238 237 0
239 234 237 0
-239 -234 0
-239 -237 0
240 238 239 0
-240 -238 0
-240 -239 0
241 -37 -41 0
-241 37 0
-241 41 0
242 1 2 0
-242 -1 0
-242 -2 0
243 -1 -2 0
-243 1 0
-243 2 0
244 242 243 0
-244 -242 0
-244 -243 0
245 -3 4 0
-245 3 0
-245 -4 0
246 3 -4 0
-246 -3 0
-246 4 0
247 245 246 0
-247 -245 0
-247 -246 0
248 -244 -247 0
-248 244 0
-248 247 0
249 244 247 0
-249 -244 0
-249 -247 0
250 248 249 0
-250 -248 0
-250 -249 0
251 -241 -250 0
-251 241 0
-251 250 0
252 241 250 0
-252 -241 0
-252 -250 0
253 251 252 0
-253 -251 0
-253 -252 0
254 67 -253 0
-254 -67 0
-254 253 0
255 -67 253 0
-255 67 0
-255 -253 0
256 254 255 0
-256 -254 0
-256 -255 0
257 -240 -256 0
-257 240 0
-257 256 0
258 240 256 0
-258 -240 0
-258 -256 0
259 257 258 0
-259 -257 0
-259 -258 0
260 231 -259 0
-260 -231 0
-260 259 0
261 -231 259 0
-261 231 0
-261 -259 0
262 260 261 0
-262 -260 0
-262 -261 0
263 -39 -41 0
-263 39 0
-263 41 0
264 -250 -263 0
-264 250 0
-264 263 0
265 250 263 0
-265 -250 0
-265 -263 0
266 264 265 0
-266 -264 0
-266 -265 0
267 19 23 0
-267 -19 0
-267 -23 0
268 -19 -23 0
-268 19 0
-268 23 0
269 267 268 0
-269 -267 0
-269 -268 0
270 -27 31 0
-270 27 0
-270 -31 0
271 27 -31 0
-271 -27 0
-271 31 0
272 270 271 0
-272 -270 0
-272 -271 0
273 -269 272 0
-273 269 0
-273 -272 0
274 269 -272 0
-274 -269 0
-274 272 0
275 273 274 0
-275 -273 0
-275 -274 0
276 -213 275 0
-276 213 0
-276 -275 0
277 213 -275 0
-277 -213 0
-277 275 0
278 276 277 0
-278 -276 0
-278 -277 0
279 -266 -278 0
-279 266 0
-279 278 0
280 266 278 0
-280 -266 0
-280 -278 0
281 279 280 0
-281 -279 0
-281 -280 0
282 -86 -281 0
-282 86 0
-282 281 0
283 262 -282 0
-283 -262 0
-283 282 0
284 -86 281 0
-284 86 0
-284 -281 0
285 86 -281 0
-285 -86 0
-285 281 0
286 284 285 0
-286 -284 0
-286 -285 0
287 -231 -259 0
-287 231 0
-287 259 0
288 286 -287 0
-288 -286 0
-288 287 0
289 283 288 0
-289 -283 0
-289 -288 0
290 -164 -203 0
-290 164 0
-290 203 0
291 289 -290 0
-291 -289 0
-291 290 0
292 86 -291 0
-292 -86 0
-292 291 0
293 -55 -76 0
-293 55 0
-293 76 0
294 55 76 0
-294 -55 0
-294 -76 0
295 293 294 0
-295 -293 0
-295 -294 0
296 59 61 0
-296 -59 0
-296 -61 0
297 -58 -296 0
-297 58 0
-297 296 0
298 58 296 0
-298 -58 0
-298 -296 0
299 297 298 0
-299 -297 0
-299 -298 0
300 -77 299 0
-300 77 0
-300 -299 0
301 77 -299 0
-301 -77 0
-301 299 0
302 300 301 0
-302 -300 0
-302 -301 0
303 -295 -302 0
-303 295 0
-303 302 0
304 295 302 0
-304 -295 0
-304 -302 0
305 303 304 0
-305 -303 0
-305 -304 0
306 -96 -173 0
-306 96 0
-306 173 0
307 96 173 0
-307 -96 0
-307 -173 0
308 306 307 0
-308 -306 0
-308 -307 0
309 132 -177 0
-309 -132 0
-309 177 0
310 -132 177 0
-310 132 0
-310 -177 0
311 309 310 0
-311 -309 0
-311 -310 0
312 -308 -311 0
-312 308 0
-312 311 0
313 308 311 0
-313 -308 0
-313 -311 0
314 312 313 0
-314 -312 0
-314 -313 0
315 -144 -157 0
-315 144 0
-315 157 0
316 144 157 0
-316 -144 0
-316 -157 0
317 315 316 0
-317 -315 0
-317 -316 0
318 132 -148 0
-318 -132 0
-318 148 0
319 -132 148 0
-319 132 0
-319 -148 0
320 318 319 0
-320 -318 0
-320 -319 0
321 -317 -320 0
-321 317 0
-321 320 0
322 317 320 0
-322 -317 0
-322 -320 0
323 321 322 0
-323 -321 0
-323 -322 0
324 -240 299 0
-324 240 0
-324 -299 0
325 240 -299 0
-325 -240 0
-325 299 0
326 324 325 0
-326 -324 0
-326 -325 0
327 -253 -326 0
-327 253 0
-327 326 0
328 253 326 0
-328 -253 0
-328 -326 0
329 327 328 0
-329 -327 0
-329 -328 0
330 231 329 0
-330 -231 0
-330 -329 0
331 -231 -329 0
-331 231 0
-331 329 0
332 330 331 0
-332 -330 0
-332 -331 0
333 -281 305 0
-333 281 0
-333 -305 0
334 332 -333 0
-334 -332 0
-334 333 0
335 281 305 0
-335 -281 0
-335 -305 0
336 -281 -305 0
-336 281 0
-336 305 0
337 335 336 0
-337 -335 0
-337 -336 0
338 -231 329 0
-338 231 0
-338 -329 0
339 337 -338 0
-339 -337 0
-339 338 0
340 334 339 0
-340 -334 0
-340 -339 0
341 123 -202 0
-341 -123 0
-341 202 0
342 -314 -323 0
-342 314 0
-342 323 0
343 -341 -342 0
-343 341 0
-343 342 0
344 340 -343 0
-344 -340 0
-344 343 0
345 -305 -344 0
-345 305 0
-345 344 0
346 292 -345 0
-346 -292 0
-346 345 0
347 -292 345 0
-347 292 0
-347 -345 0
348 -123 163 0
-348 123 0
-348 -163 0
349 164 348 0
-349 -164 0
-349 -348 0
350 183 -202 0
-350 -183 0
-350 202 0
351 349 -350 0
-351 -349 0
-351 350 0
352 183 202 0
-352 -183 0
-352 -202 0
353 203 352 0
-353 -203 0
-353 -352 0
354 123 163 0
-354 -123 0
-354 -163 0
355 353 -354 0
-355 -353 0
-355 354 0
356 351 355 0
-356 -351 0
-356 -355 0
357 -285 356 0
-357 285 0
-357 -356 0
358 -260 -357 0
-358 260 0
-358 357 0
359 -163 -358 0
-359 163 0
-359 358 0
360 -202 -314 0
-360 202 0
-360 314 0
361 202 314 0
-361 -202 0
-361 -314 0
362 360 361 0
-362 -360 0
-362 -361 0
363 123 323 0
-363 -123 0
-363 -323 0
364 362 -363 0
-364 -362 0
-364 363 0
365 -123 323 0
-365 123 0
-365 -323 0
366 123 -323 0
-366 -123 0
-366 323 0
367 365 366 0
-367 -365 0
-367 -366 0
368 -202 314 0
-368 202 0
-368 -314 0
369 367 -368 0
-369 -367 0
-369 368 0
370 364 369 0
-370 -364 0
-370 -369 0
371 -336 370 0
-371 336 0
-371 -370 0
372 -330 -371 0
-372 330 0
-372 371 0
373 -323 -372 0
-373 323 0
-373 372 0
374 359 373 0
-374 -359 0
-374 -373 0
375 -359 -373 0
-375 359 0
-375 373 0
376 374 375 0
-376 -374 0
-376 -375 0
377 -284 356 0
-377 284 0
-377 -356 0
378 -261 -377 0
-378 261 0
-378 377 0
379 -163 -378 0
-379 163 0
-379 378 0
380 -335 370 0
-380 335 0
-380 -370 0
381 -331 -380 0
-381 331 0
-381 380 0
382 -323 -381 0
-382 323 0
-382 381 0
383 379 382 0
-383 -379 0
-383 -382 0
384 -379 -382 0
-384 379 0
-384 382 0
385 383 384 0
-385 -383 0
-385 -384 0
386 -260 -377 0
-386 260 0
-386 377 0
387 -163 -386 0
-387 163 0
-387 386 0
388 -330 -380 0
-388 330 0
-388 380 0
389 -323 -388 0
-389 323 0
-389 388 0
390 387 389 0
-390 -387 0
-390 -389 0
391 -387 -389 0
-391 387 0
-391 389 0
392 390 391 0
-392 -390 0
-392 -391 0
393 289 -352 0
-393 -289 0
-393 352 0
394 -348 -393 0
-394 348 0
-394 393 0
395 86 -394 0
-395 -86 0
-395 394 0
396 340 -361 0
-396 -340 0
-396 361 0
397 -365 -396 0
-397 365 0
-397 396 0
398 -305 -397 0
-398 305 0
-398 397 0
399 395 398 0
-399 -395 0
-399 -398 0
400 -395 -398 0
-400 395 0
-400 398 0
401 399 400 0
-401 -399 0
-401 -400 0
402 259 -394 0
-402 -259 0
-402 394 0
403 -329 -397 0
-403 329 0
-403 397 0
404 402 403 0
-404 -402 0
-404 -403 0
405 -402 -403 0
-405 402 0
-405 403 0
406 404 405 0
-406 -404 0
-406 -405 0
407 -231 -281 0
-407 231 0
-407 281 0
408 -203 -348 0
-408 203 0
-408 348 0
409 289 -408 0
-409 -289 0
-409 408 0
410 -45 409 0
-410 45 0
-410 -409 0
411 45 -409 0
-411 -45 0
-411 409 0
412 410 411 0
-412 -410 0
-412 -411 0
413 -360 -365 0
-413 360 0
-413 365 0
414 340 -413 0
-414 -340 0
-414 413 0
415 -412 414 0
-415 412 0
-415 -414 0
416 412 -414 0
-416 -412 0
-416 414 0
417 407 415 0
-417 -407 0
-417 -415 0
418 416 -417 0
-418 -416 0
-418 417 0
419 -394 397 0
-419 394 0
-419 -397 0
420 394 -397 0
-420 -394 0
-420 397 0
421 -164 -393 0
-421 164 0
-421 393 0
422 -366 -396 0
-422 366 0
-422 396 0
423 421 -422 0
-423 -421 0
-423 422 0
424 -421 422 0
-424 421 0
-424 -422 0
425 419 420 0
-425 -419 0
-425 -420 0
426 423 424 0
-426 -423 0
-426 -424 0
427 -425 -426 0
-427 425 0
-427 426 0
428 407 427 0
-428 -407 0
-428 -427 0
429 -358 372 0
-429 358 0
-429 -372 0
430 358 -372 0
-430 -358 0
-430 372 0
431 429 430 0
-431 -429 0
-431 -430 0
432 202 431 0
-432 -202 0
-432 -431 0
433 259 -291 0
-433 -259 0
-433 291 0
434 -329 -344 0
-434 329 0
-434 344 0
435 433 434 0
-435 -433 0
-435 -434 0
436 -433 -434 0
-436 433 0
-436 434 0
437 435 436 0
-437 -435 0
-437 -436 0
438 86 -421 0
-438 -86 0
-438 421 0
439 -305 -422 0
-439 305 0
-439 422 0
440 438 439 0
-440 -438 0
-440 -439 0
441 -438 -439 0
-441 438 0
-441 439 0
442 440 441 0
-442 -440 0
-442 -441 0
443 259 412 0
-443 -259 0
-443 -412 0
444 -329 -414 0
-444 329 0
-444 414 0
445 443 444 0
-445 -443 0
-445 -444 0
446 -443 -444 0
-446 443 0
-446 444 0
447 445 446 0
-447 -445 0
-447 -446 0
448 -123 431 0
-448 123 0
-448 -431 0
449 -386 388 0
-449 386 0
-449 -388 0
450 386 -388 0
-450 -386 0
-450 388 0
451 449 450 0
-451 -449 0
-451 -450 0
452 202 451 0
-452 -202 0
-452 -451 0
453 291 344 0
-453 -291 0
-453 -344 0
454 -291 -344 0
-454 291 0
-454 344 0
455 407 453 0
-455 -407 0
-455 -453 0
456 454 -455 0
-456 -454 0
-456 455 0
457 378 381 0
-457 -378 0
-457 -381 0
458 -378 -381 0
-458 378 0
-458 381 0
459 341 457 0
-459 -341 0
-459 -457 0
460 458 -459 0
-460 -458 0
-460 459 0
461 -183 -386 0
-461 183 0
-461 386 0
462 -314 -388 0
-462 314 0
-462 388 0
463 461 -462 0
-463 -461 0
-463 462 0
464 -461 462 0
-464 461 0
-464 -462 0
465 -261 -357 0
-465 261 0
-465 357 0
466 -163 -465 0
-466 163 0
-466 465 0
467 -331 -371 0
-467 331 0
-467 371 0
468 -323 -467 0
-468 323 0
-468 467 0
469 466 -468 0
-469 -466 0
-469 468 0
470 -466 468 0
-470 466 0
-470 -468 0
471 -123 451 0
-471 123 0
-471 -451 0
472 -183 -358 0
-472 183 0
-472 358 0
473 -314 -372 0
-473 314 0
-473 372 0
474 472 473 0
-474 -472 0
-474 -473 0
475 -472 -473 0
-475 472 0
-475 473 0
476 474 475 0
-476 -474 0
-476 -475 0
477 259 -421 0
-477 -259 0
-477 421 0
478 -329 -422 0
-478 329 0
-478 422 0
479 -44 478 0
-479 44 0
-479 -478 0
480 44 -478 0
-480 -44 0
-480 478 0
481 479 480 0
-481 -479 0
-481 -480 0
482 -477 481 0
-482 477 0
-482 -481 0
483 477 -481 0
-483 -477 0
-483 481 0
484 482 483 0
-484 -482 0
-484 -483 0
485 86 412 0
-485 -86 0
-485 -412 0
486 -305 -414 0
-486 305 0
-486 414 0
487 485 -486 0
-487 -485 0
-487 486 0
488 -485 486 0
-488 485 0
-488 -486 0
489 -183 -465 0
-489 183 0
-489 465 0
490 -314 -467 0
-490 314 0
-490 467 0
491 489 490 0
-491 -489 0
-491 -490 0
492 -489 -490 0
-492 489 0
-492 490 0
493 491 492 0
-493 -491 0
-493 -492 0
494 -183 -378 0
-494 183 0
-494 378 0
495 -314 -381 0
-495 314 0
-495 381 0
496 -494 495 0
-496 494 0
-496 -495 0
497 494 -495 0
-497 -494 0
-497 495 0
498 465 467 0
-498 -465 0
-498 -467 0
499 -465 -467 0
-499 465 0
-499 467 0
500 341 498 0
-500 -341 0
-500 -498 0
501 499 -500 0
-501 -499 0
-501 500 0
502 346 347 0
-502 -346 0
-502 -347 0
503 437 -502 0
-503 -437 0
-503 502 0
504 456 463 0
-504 -456 0
-504 -463 0
505 464 469 0
-505 -464 0
-505 -469 0
506 470 496 0
-506 -470 0
-506 -496 0
507 497 -506 0
-507 -497 0
-507 506 0
508 -504 -505 0
-508 504 0
-508 505 0
509 376 -503 0
-509 -376 0
-509 503 0
510 385 392 0
-510 -385 0
-510 -392 0
511 401 406 0
-511 -401 0
-511 -406 0
512 432 442 0
-512 -432 0
-512 -442 0
513 448 452 0
-513 -448 0
-513 -452 0
514 460 471 0
-514 -460 0
-514 -471 0
515 476 484 0
-515 -476 0
-515 -484 0
516 487 488 0
-516 -487 0
-516 -488 0
517 493 501 0
-517 -493 0
-517 -501 0
518 -516 -517 0
-518 516 0
-518 517 0
519 -514 -515 0
-519 514 0
-519 515 0
520 -512 -513 0
-520 512 0
-520 513 0
521 -510 -511 0
-521 510 0
-521 511 0
522 -508 -509 0
-522 508 0
-522 509 0
523 418 -507 0
-523 -418 0
-523 507 0
524 428 447 0
-524 -428 0
-524 -447 0
525 -523 -524 0
-525 523 0
-525 524 0
526 -521 -522 0
-526 521 0
-526 522 0
527 -519 -520 0
-527 519 0
-527 520 0
528 -518 -527 0
-528 518 0
-528 527 0
529 -525 -526 0
-529 525 0
-529 526 0
530 -528 -529 0
-530 528 0
-530 529 0
46 530 0
-46 -530 0
46 0
w 1 0.500000
w 2 0.500000
w 3 0.500000
w 4 0.500000
w 5 0.500000
w 6 0.500000
w 7 0.500000
w 8 0.500000
w 9 0.500000
w 10 0.500000
w 11 0.500000
w 12 0.500000
w 13 0.500000
w 14 0.500000
w 15 0.500000
w 16 0.500000
w 17 0.500000
w 18 0.500000
w 19 0.500000
w 20 0.500000
w 21 0.500000
w 22 0.500000
w 23 0.500000
w 24 0.500000
w 25 0.500000
w 26 0.500000
w 27 0.500000
w 28 0.500000
w 29 0.500000
w 30 0.500000
w 31 0.500000
w 32 0.500000
w 33 0.500000
w 34 0.500000
w 35 0.500000
w 36 0.500000
w 37 0.500000
w 38 0.500000
w 39 0.500000
w 40 0.500000
w 41 0.500000
w 42 0.125000
w 43 0.125000
w 44 0.125000
w 45 0.125000
w 47 -1
w 48 -1
w 49 -1
w 50 -1
w 51 -1
w 52 -1
w 53 -1
w 54 -1
w 55 -1
w 56 -1
w 57 -1
w 58 -1
w 59 -1
w 60 -1
w 61 -1
w 62 -1
w 63 -1
w 64 -1
w 65 -1
w 66 -1
w 67 -1
w 68 -1
w 69 -1
w 70 -1
w 71 -1
w 72 -1
w 73 -1
w 74 -1
w 75 -1
w 76 -1
w 77 -1
w 78 -1
w 79 -1
w 80 -1
w 81 -1
w 82 -1
w 83 -1
w 84 -1
w 85 -1
w 86 -1
w 87 -1
w 88 -1
w 89 -1
w 90 -1
w 91 -1
w 92 -1
w 93 -1
w 94 -1
w 95 -1
w 96 -1
w 97 -1
w 98 -1
w 99 -1
w 100 -1
w 101 -1
w 102 -1
w 103 -1
w 104 -1
w 105 -1
w 106 -1
w 107 -1
w 108 -1
w 109 -1
w 110 -1
w 111 -1
w 112 -1
w 113 -1
w 114 -1
w 115 -1
w 116 -1
w 117 -1
w 118 -1
w 119 -1
w 120 -1
w 121 -1
w 122 -1
w 123 -1
w 124 -1
w 125 -1
w 126 -1
w 127 -1
w 128 -1
w 129 -1
w 130 -1
w 131 -1
w 132 -1
w 133 -1
w 134 -1
w 135 -1
w 136 -1
w 137 -1
w 138 -1
w 139 -1
w 140 -1
w 141 -1
w 142 -1
w 143 -1
w 144 -1
w 145 -1
w 146 -1
w 147 -1
w 148 -1
w 149 -1
w 150 -1
w 151 -1
w 152 -1
w 153 -1
w 154 -1
w 155 -1
w 156 -1
w 157 -1
w 158 -1
w 159 -1
w 160 -1
w 161 -1
w 162 -1
w 163 -1
w 164 -1
w 165 -1
w 166 -1
w 167 -1
w 168 -1
w 169 -1
w 170 -1
w 171 -1
w 172 -1
w 173 -1
w 174 -1
w 175 -1
w 176 -1
w 177 -1
w 178 -1
w 179 -1
w 180 -1
w 181 -1
w 182 -1
w 183 -1
w 184 -1
w 185 -1
w 186 -1
w 187 -1
w 188 -1
w 189 -1
w 190 -1
w 191 -1
w 192 -1
w 193 -1
w 194 -1
w 195 -1
w 196 -1
w 197 -1
w 198 -1
w 199 -1
w 200 -1
w 201 -1
w 202 -1
w 203 -1
w 204 -1
w 205 -1
w 206 -1
w 207 -1
w 208 -1
w 209 -1
w 210 -1
w 211 -1
w 212 -1
w 213 -1
w 214 -1
w 215 -1
w 216 -1
w 217 -1
w 218 -1
w 219 -1
w 220 -1
w 221 -1
w 222 -1
w 223 -1
w 224 -1
w 225 -1
w 226 -1
w 227 -1
w 228 -1
w 229 -1
w 230 -1
w 231 -1
w 232 -1
w 233 -1
w 234 -1
w 235 -1
w 236 -1
w 237 -1
w 238 -1
w 239 -1
w 240 -1
w 241 -1
w 242 -1
w 243 -1
w 244 -1
w 245 -1
w 246 -1
w 247 -1
w 248 -1
w 249 -1
w 250 -1
w 251 -1
w 252 -1
w 253 -1
w 254 -1
w 255 -1
w 256 -1
w 257 -1
w 258 -1
w 259 -1
w 260 -1
w 261 -1
w 262 -1
w 263 -1
w 264 -1
w 265 -1
w 266 -1
w 267 -1
w 268 -1
w 269 -1
w 270 -1
w 271 -1
w 272 -1
w 273 -1
w 274 -1
w 275 -1
w 276 -1
w 277 -1
w 278 -1
w 279 -1
w 280 -1
w 281 -1
w 282 -1
w 283 -1
w 284 -1
w 285 -1
w 286 -1
w 287 -1
w 288 -1
w 289 -1
w 290 -1
w 291 -1
w 292 -1
w 293 -1
w 294 -1
w 295 -1
w 296 -1
w 297 -1
w 298 -1
w 299 -1
w 300 -1
w 301 -1
w 302 -1
w 303 -1
w 304 -1
w 305 -1
w 306 -1
w 307 -1
w 308 -1
w 309 -1
w 310 -1
w 311 -1
w 312 -1
w 313 -1
w 314 -1
w 315 -1
w 316 -1
w 317 -1
w 318 -1
w 319 -1
w 320 -1
w 321 -1
w 322 -1
w 323 -1
w 324 -1
w 325 -1
w 326 -1
w 327 -1
w 328 -1
w 329 -1
w 330 -1
w 331 -1
w 332 -1
w 333 -1
w 334 -1
w 335 -1
w 336 -1
w 337 -1
w 338 -1
w 339 -1
w 340 -1
w 341 -1
w 342 -1
w 343 -1
w 344 -1
w 345 -1
w 346 -1
w 347 -1
w 348 -1
w 349 -1
w 350 -1
w 351 -1
w 352 -1
w 353 -1
w 354 -1
w 355 -1
w 356 -1
w 357 -1
w 358 -1
w 359 -1
w 360 -1
w 361 -1
w 362 -1
w 363 -1
w 364 -1
w 365 -1
w 366 -1
w 367 -1
w 368 -1
w 369 -1
w 370 -1
w 371 -1
w 372 -1
w 373 -1
w 374 -1
w 375 -1
w 376 -1
w 377 -1
w 378 -1
w 379 -1
w 380 -1
w 381 -1
w 382 -1
w 383 -1
w 384 -1
w 385 -1
w 386 -1
w 387 -1
w 388 -1
w 389 -1
w 390 -1
w 391 -1
w 392 -1
w 393 -1
w 394 -1
w 395 -1
w 396 -1
w 397 -1
w 398 -1
w 399 -1
w 400 -1
w 401 -1
w 402 -1
w 403 -1
w 404 -1
w 405 -1
w 406 -1
w 407 -1
w 408 -1
w 409 -1
w 410 -1
w 411 -1
w 412 -1
w 413 -1
w 414 -1
w 415 -1
w 416 -1
w 417 -1
w 418 -1
w 419 -1
w 420 -1
w 421 -1
w 422 -1
w 423 -1
w 424 -1
w 425 -1
w 426 -1
w 427 -1
w 428 -1
w 429 -1
w 430 -1
w 431 -1
w 432 -1
w 433 -1
w 434 -1
w 435 -1
w 436 -1
w 437 -1
w 438 -1
w 439 -1
w 440 -1
w 441 -1
w 442 -1
w 443 -1
w 444 -1
w 445 -1
w 446 -1
w 447 -1
w 448 -1
w 449 -1
w 450 -1
w 451 -1
w 452 -1
w 453 -1
w 454 -1
w 455 -1
w 456 -1
w 457 -1
w 458 -1
w 459 -1
w 460 -1
w 461 -1
w 462 -1
w 463 -1
w 464 -1
w 465 -1
w 466 -1
w 467 -1
w 468 -1
w 469 -1
w 470 -1
w 471 -1
w 472 -1
w 473 -1
w 474 -1
w 475 -1
w 476 -1
w 477 -1
w 478 -1
w 479 -1
w 480 -1
w 481 -1
w 482 -1
w 483 -1
w 484 -1
w 485 -1
w 486 -1
w 487 -1
w 488 -1
w 489 -1
w 490 -1
w 491 -1
w 492 -1
w 493 -1
w 494 -1
w 495 -1
w 496 -1
w 497 -1
w 498 -1
w 499 -1
w 500 -1
w 501 -1
w 502 -1
w 503 -1
w 504 -1
w 505 -1
w 506 -1
w 507 -1
w 508 -1
w 509 -1
w 510 -1
w 511 -1
w 512 -1
w 513 -1
w 514 -1
w 515 -1
w 516 -1
w 517 -1
w 518 -1
w 519 -1
w 520 -1
w 521 -1
w 522 -1
w 523 -1
w 524 -1
w 525 -1
w 526 -1
w 527 -1
w 528 -1
w 529 -1
w 530 -1
w 46 -1
